7269
1528
6018
7701
2684
4279
3227
4722
7699
1438
4529
3858
8068
2655
4482
7450
580
6492
5912
9840
2095
8047
2012
7050
2540
8611
2714
2799
4912
3366
532
896
5668
8853
4404
4314
8613
6796
6760
5790
506
1795
9972
6463
10095
3337
10088
9959
394
1741
